n = 10;

m = 16;

44	57	69	69	48	9	13	59	47	48
40	44	58	79	57	47	5	53	29	48
43	15	13	73	33	69	15	57	49	71
20	12	21	64	73	51	78	31	39	73
27	61	25	45	35	71	12	46	13	66
12	11	14	78	23	12	54	68	1	53
59	30	5	29	31	50	30	32	20	17
69	56	19	5	44	73	24	58	52	37
65	54	13	44	9	27	17	20	37	69
10	51	63	42	77	50	1	47	54	1
22	14	58	65	11	53	46	15	9	64
38	53	13	58	37	34	25	37	27	72 
61	69	24	11	15	79	58	57	65	66 
44	56	55	65	42	52	61	62	80	21 
39	5	60	74	76	23	25	78	9	77
27	61	25	45	35	71	12	46	13	66	